(declare-rel state (Bool Int Int Int Int Int Int Bool Bool Bool Int Int Int Bool Bool Bool Bool Bool Bool Bool))
(declare-var |_OK_| Bool)
(declare-var |_OK_.next| Bool)
(declare-var |call_speed.call_counter.c| Int)
(declare-var |call_speed.call_counter.c.next| Int)
(declare-var |call_speed.call_counter.flby| Int)
(declare-var |call_speed.call_counter.flby.next| Int)
(declare-var |call_speed.call_counter.ite_keyword| Int)
(declare-var |call_speed.call_counter.ite_keyword.next| Int)
(declare-var |call_speed.call_counter.ite_keyword2| Int)
(declare-var |call_speed.call_counter.ite_keyword2.next| Int)
(declare-var |call_speed.call_counter.pc| Int)
(declare-var |call_speed.call_counter.pc.next| Int)
(declare-var |call_speed.diff| Int)
(declare-var |call_speed.diff.next| Int)
(declare-var |call_speed.early| Bool)
(declare-var |call_speed.early.next| Bool)
(declare-var |call_speed.flby| Bool)
(declare-var |call_speed.flby.next| Bool)
(declare-var |call_speed.flby2| Bool)
(declare-var |call_speed.flby2.next| Bool)
(declare-var |call_speed.incr| Int)
(declare-var |call_speed.incr.next| Int)
(declare-var |call_speed.ite_keyword| Int)
(declare-var |call_speed.ite_keyword.next| Int)
(declare-var |call_speed.ite_keyword2| Int)
(declare-var |call_speed.ite_keyword2.next| Int)
(declare-var |call_speed.ite_keyword3| Bool)
(declare-var |call_speed.ite_keyword3.next| Bool)
(declare-var |call_speed.ite_keyword4| Bool)
(declare-var |call_speed.ite_keyword4.next| Bool)
(declare-var |call_speed.late| Bool)
(declare-var |call_speed.late.next| Bool)
(declare-var |early| Bool)
(declare-var |early.next| Bool)
(declare-var |late| Bool)
(declare-var |late.next| Bool)
(declare-var |param_beacon| Bool)
(declare-var |param_beacon.next| Bool)
(declare-var |param_second| Bool)
(declare-var |param_second.next| Bool)

(define-fun .init () Bool
(let ((.def_83 (and early late)))
(let ((.def_84 (not .def_83)))
(let ((.def_86 (= .def_84 _OK_)))
(let ((.def_82 (= call_speed.late late)))
(let ((.def_87 (and .def_82 .def_86)))
(let ((.def_80 (= call_speed.early early)))
(let ((.def_88 (and .def_80 .def_87)))
(let ((.def_72 (= call_speed.call_counter.ite_keyword call_speed.call_counter.pc)))
(let ((.def_66 (<= call_speed.call_counter.pc (- 1000))))
(let ((.def_67 (not .def_66)))
(let ((.def_64 (or param_second param_beacon)))
(let ((.def_68 (and .def_64 .def_67)))
(let ((.def_62 (<= 1000 call_speed.call_counter.pc)))
(let ((.def_63 (not .def_62)))
(let ((.def_69 (and .def_63 .def_68)))
(let ((.def_73 (or .def_69 .def_72)))
(let ((.def_70 (not .def_69)))
(let ((.def_56 (* (- 1) call_speed.incr)))
(let ((.def_57 (* (- 1) call_speed.call_counter.pc)))
(let ((.def_58 (+ .def_57 .def_56)))
(let ((.def_59 (+ call_speed.call_counter.ite_keyword .def_58)))
(let ((.def_60 (= .def_59 0)))
(let ((.def_71 (or .def_60 .def_70)))
(let ((.def_74 (and .def_71 .def_73)))
(let ((.def_51 (= call_speed.ite_keyword (- 1))))
(let ((.def_46 (not param_beacon)))
(let ((.def_47 (and param_second .def_46)))
(let ((.def_49 (not .def_47)))
(let ((.def_52 (or .def_49 .def_51)))
(let ((.def_75 (and .def_52 .def_74)))
(let ((.def_45 (= call_speed.ite_keyword 0)))
(let ((.def_48 (or .def_45 .def_47)))
(let ((.def_76 (and .def_48 .def_75)))
(let ((.def_43 (= call_speed.ite_keyword2 1)))
(let ((.def_37 (not param_second)))
(let ((.def_39 (and .def_37 param_beacon)))
(let ((.def_41 (not .def_39)))
(let ((.def_44 (or .def_41 .def_43)))
(let ((.def_77 (and .def_44 .def_76)))
(let ((.def_35 (= call_speed.ite_keyword2 call_speed.ite_keyword)))
(let ((.def_40 (or .def_35 .def_39)))
(let ((.def_78 (and .def_40 .def_77)))
(let ((.def_89 (and .def_78 .def_88)))
(let ((.def_33 (= call_speed.flby2 call_speed.late)))
(let ((.def_90 (and .def_33 .def_89)))
(let ((.def_31 (= call_speed.flby call_speed.early)))
(let ((.def_91 (and .def_31 .def_90)))
(let ((.def_29 (= call_speed.call_counter.c call_speed.diff)))
(let ((.def_92 (and .def_29 .def_91)))
(let ((.def_27 (= call_speed.incr call_speed.ite_keyword2)))
(let ((.def_93 (and .def_27 .def_92)))
(let ((.def_24 (= call_speed.call_counter.ite_keyword2 call_speed.call_counter.c)))
(let ((.def_94 (and .def_24 .def_93)))
(let ((.def_22 (= call_speed.call_counter.flby call_speed.call_counter.pc)))
(let ((.def_95 (and .def_22 .def_94)))
(let ((.def_20 (= call_speed.call_counter.ite_keyword call_speed.call_counter.ite_keyword2)))
(let ((.def_96 (and .def_20 .def_95)))
(let ((.def_15 (not call_speed.flby)))
(let ((.def_13 (not call_speed.flby2)))
(let ((.def_16 (and .def_13 .def_15)))
(let ((.def_11 (= call_speed.call_counter.flby 0)))
(let ((.def_17 (and .def_11 .def_16)))
(let ((.def_97 (and .def_17 .def_96)))
.def_97))))))))))))))))))))))))))))))))))))))))))))))))))))))))))))))))

(define-fun .trans () Bool
(let ((.def_198 (<= call_speed.diff.next (- 10))))
(let ((.def_199 (= call_speed.ite_keyword4.next .def_198)))
(let ((.def_200 (or call_speed.late .def_199)))
(let ((.def_193 (<= 0 call_speed.diff.next)))
(let ((.def_194 (not .def_193)))
(let ((.def_195 (= call_speed.ite_keyword4.next .def_194)))
(let ((.def_192 (not call_speed.late)))
(let ((.def_196 (or .def_192 .def_195)))
(let ((.def_201 (and .def_196 .def_200)))
(let ((.def_188 (<= 10 call_speed.diff.next)))
(let ((.def_189 (= call_speed.ite_keyword3.next .def_188)))
(let ((.def_190 (or call_speed.early .def_189)))
(let ((.def_183 (<= call_speed.diff.next 0)))
(let ((.def_184 (not .def_183)))
(let ((.def_185 (= call_speed.ite_keyword3.next .def_184)))
(let ((.def_182 (not call_speed.early)))
(let ((.def_186 (or .def_182 .def_185)))
(let ((.def_191 (and .def_186 .def_190)))
(let ((.def_202 (and .def_191 .def_201)))
(let ((.def_181 (= call_speed.flby.next call_speed.ite_keyword3.next)))
(let ((.def_203 (and .def_181 .def_202)))
(let ((.def_179 (= call_speed.flby2.next call_speed.ite_keyword4.next)))
(let ((.def_204 (and .def_179 .def_203)))
(let ((.def_177 (= call_speed.call_counter.c call_speed.call_counter.flby.next)))
(let ((.def_205 (and .def_177 .def_204)))
(let ((.def_162 (and early.next late.next)))
(let ((.def_163 (not .def_162)))
(let ((.def_165 (= .def_163 _OK_.next)))
(let ((.def_161 (= call_speed.late.next late.next)))
(let ((.def_166 (and .def_161 .def_165)))
(let ((.def_159 (= call_speed.early.next early.next)))
(let ((.def_167 (and .def_159 .def_166)))
(let ((.def_151 (= call_speed.call_counter.ite_keyword.next call_speed.call_counter.pc.next)))
(let ((.def_145 (<= call_speed.call_counter.pc.next (- 1000))))
(let ((.def_146 (not .def_145)))
(let ((.def_144 (or param_second.next param_beacon.next)))
(let ((.def_147 (and .def_144 .def_146)))
(let ((.def_142 (<= 1000 call_speed.call_counter.pc.next)))
(let ((.def_143 (not .def_142)))
(let ((.def_148 (and .def_143 .def_147)))
(let ((.def_152 (or .def_148 .def_151)))
(let ((.def_149 (not .def_148)))
(let ((.def_137 (* (- 1) call_speed.incr.next)))
(let ((.def_138 (* (- 1) call_speed.call_counter.pc.next)))
(let ((.def_139 (+ .def_138 .def_137)))
(let ((.def_140 (+ call_speed.call_counter.ite_keyword.next .def_139)))
(let ((.def_141 (= .def_140 0)))
(let ((.def_150 (or .def_141 .def_149)))
(let ((.def_153 (and .def_150 .def_152)))
(let ((.def_132 (= call_speed.ite_keyword.next (- 1))))
(let ((.def_128 (not param_beacon.next)))
(let ((.def_129 (and param_second.next .def_128)))
(let ((.def_131 (not .def_129)))
(let ((.def_133 (or .def_131 .def_132)))
(let ((.def_154 (and .def_133 .def_153)))
(let ((.def_127 (= call_speed.ite_keyword.next 0)))
(let ((.def_130 (or .def_127 .def_129)))
(let ((.def_155 (and .def_130 .def_154)))
(let ((.def_125 (= call_speed.ite_keyword2.next 1)))
(let ((.def_120 (not param_second.next)))
(let ((.def_122 (and .def_120 param_beacon.next)))
(let ((.def_124 (not .def_122)))
(let ((.def_126 (or .def_124 .def_125)))
(let ((.def_156 (and .def_126 .def_155)))
(let ((.def_118 (= call_speed.ite_keyword2.next call_speed.ite_keyword.next)))
(let ((.def_123 (or .def_118 .def_122)))
(let ((.def_157 (and .def_123 .def_156)))
(let ((.def_168 (and .def_157 .def_167)))
(let ((.def_116 (= call_speed.flby2.next call_speed.late.next)))
(let ((.def_169 (and .def_116 .def_168)))
(let ((.def_113 (= call_speed.flby.next call_speed.early.next)))
(let ((.def_170 (and .def_113 .def_169)))
(let ((.def_110 (= call_speed.call_counter.c.next call_speed.diff.next)))
(let ((.def_171 (and .def_110 .def_170)))
(let ((.def_108 (= call_speed.incr.next call_speed.ite_keyword2.next)))
(let ((.def_172 (and .def_108 .def_171)))
(let ((.def_105 (= call_speed.call_counter.ite_keyword2.next call_speed.call_counter.c.next)))
(let ((.def_173 (and .def_105 .def_172)))
(let ((.def_103 (= call_speed.call_counter.flby.next call_speed.call_counter.pc.next)))
(let ((.def_174 (and .def_103 .def_173)))
(let ((.def_100 (= call_speed.call_counter.ite_keyword.next call_speed.call_counter.ite_keyword2.next)))
(let ((.def_175 (and .def_100 .def_174)))
(let ((.def_83 (and early late)))
(let ((.def_84 (not .def_83)))
(let ((.def_86 (= .def_84 _OK_)))
(let ((.def_82 (= call_speed.late late)))
(let ((.def_87 (and .def_82 .def_86)))
(let ((.def_80 (= call_speed.early early)))
(let ((.def_88 (and .def_80 .def_87)))
(let ((.def_72 (= call_speed.call_counter.ite_keyword call_speed.call_counter.pc)))
(let ((.def_66 (<= call_speed.call_counter.pc (- 1000))))
(let ((.def_67 (not .def_66)))
(let ((.def_64 (or param_second param_beacon)))
(let ((.def_68 (and .def_64 .def_67)))
(let ((.def_62 (<= 1000 call_speed.call_counter.pc)))
(let ((.def_63 (not .def_62)))
(let ((.def_69 (and .def_63 .def_68)))
(let ((.def_73 (or .def_69 .def_72)))
(let ((.def_70 (not .def_69)))
(let ((.def_56 (* (- 1) call_speed.incr)))
(let ((.def_57 (* (- 1) call_speed.call_counter.pc)))
(let ((.def_58 (+ .def_57 .def_56)))
(let ((.def_59 (+ call_speed.call_counter.ite_keyword .def_58)))
(let ((.def_60 (= .def_59 0)))
(let ((.def_71 (or .def_60 .def_70)))
(let ((.def_74 (and .def_71 .def_73)))
(let ((.def_51 (= call_speed.ite_keyword (- 1))))
(let ((.def_46 (not param_beacon)))
(let ((.def_47 (and param_second .def_46)))
(let ((.def_49 (not .def_47)))
(let ((.def_52 (or .def_49 .def_51)))
(let ((.def_75 (and .def_52 .def_74)))
(let ((.def_45 (= call_speed.ite_keyword 0)))
(let ((.def_48 (or .def_45 .def_47)))
(let ((.def_76 (and .def_48 .def_75)))
(let ((.def_43 (= call_speed.ite_keyword2 1)))
(let ((.def_37 (not param_second)))
(let ((.def_39 (and .def_37 param_beacon)))
(let ((.def_41 (not .def_39)))
(let ((.def_44 (or .def_41 .def_43)))
(let ((.def_77 (and .def_44 .def_76)))
(let ((.def_35 (= call_speed.ite_keyword2 call_speed.ite_keyword)))
(let ((.def_40 (or .def_35 .def_39)))
(let ((.def_78 (and .def_40 .def_77)))
(let ((.def_89 (and .def_78 .def_88)))
(let ((.def_33 (= call_speed.flby2 call_speed.late)))
(let ((.def_90 (and .def_33 .def_89)))
(let ((.def_31 (= call_speed.flby call_speed.early)))
(let ((.def_91 (and .def_31 .def_90)))
(let ((.def_29 (= call_speed.call_counter.c call_speed.diff)))
(let ((.def_92 (and .def_29 .def_91)))
(let ((.def_27 (= call_speed.incr call_speed.ite_keyword2)))
(let ((.def_93 (and .def_27 .def_92)))
(let ((.def_24 (= call_speed.call_counter.ite_keyword2 call_speed.call_counter.c)))
(let ((.def_94 (and .def_24 .def_93)))
(let ((.def_22 (= call_speed.call_counter.flby call_speed.call_counter.pc)))
(let ((.def_95 (and .def_22 .def_94)))
(let ((.def_20 (= call_speed.call_counter.ite_keyword call_speed.call_counter.ite_keyword2)))
(let ((.def_96 (and .def_20 .def_95)))
(let ((.def_176 (and .def_96 .def_175)))
(let ((.def_206 (and .def_176 .def_205)))
.def_206))))))))))))))))))))))))))))))))))))))))))))))))))))))))))))))))))))))))))))))))))))))))))))))))))))))))))))))))))))))))))))))))))))))))))))))

(define-fun .property () Bool
_OK_)

(rule (=> .init (state |_OK_| |call_speed.call_counter.c| |call_speed.call_counter.flby| |call_speed.call_counter.ite_keyword| |call_speed.call_counter.ite_keyword2| |call_speed.call_counter.pc| |call_speed.diff| |call_speed.early| |call_speed.flby| |call_speed.flby2| |call_speed.incr| |call_speed.ite_keyword| |call_speed.ite_keyword2| |call_speed.ite_keyword3| |call_speed.ite_keyword4| |call_speed.late| |early| |late| |param_beacon| |param_second|)))
(rule (=> (and (state |_OK_| |call_speed.call_counter.c| |call_speed.call_counter.flby| |call_speed.call_counter.ite_keyword| |call_speed.call_counter.ite_keyword2| |call_speed.call_counter.pc| |call_speed.diff| |call_speed.early| |call_speed.flby| |call_speed.flby2| |call_speed.incr| |call_speed.ite_keyword| |call_speed.ite_keyword2| |call_speed.ite_keyword3| |call_speed.ite_keyword4| |call_speed.late| |early| |late| |param_beacon| |param_second|) .trans) (state |_OK_.next| |call_speed.call_counter.c.next| |call_speed.call_counter.flby.next| |call_speed.call_counter.ite_keyword.next| |call_speed.call_counter.ite_keyword2.next| |call_speed.call_counter.pc.next| |call_speed.diff.next| |call_speed.early.next| |call_speed.flby.next| |call_speed.flby2.next| |call_speed.incr.next| |call_speed.ite_keyword.next| |call_speed.ite_keyword2.next| |call_speed.ite_keyword3.next| |call_speed.ite_keyword4.next| |call_speed.late.next| |early.next| |late.next| |param_beacon.next| |param_second.next|)))
(declare-rel benchmark_query ())
(rule (=> (and (state |_OK_| |call_speed.call_counter.c| |call_speed.call_counter.flby| |call_speed.call_counter.ite_keyword| |call_speed.call_counter.ite_keyword2| |call_speed.call_counter.pc| |call_speed.diff| |call_speed.early| |call_speed.flby| |call_speed.flby2| |call_speed.incr| |call_speed.ite_keyword| |call_speed.ite_keyword2| |call_speed.ite_keyword3| |call_speed.ite_keyword4| |call_speed.late| |early| |late| |param_beacon| |param_second|) (not .property)) benchmark_query))
(query benchmark_query)
